Route #1:
Route #2: 12 18
Route #3: 23 11 25 9 4
Route #4: 20
Route #5: 3 27 29
Route #6: 7 24 8
Route #7: 13 31 28 2
Route #8: 16 22 5 10 15
Route #9: 1
Route #10: 6 21 17 14 30
Route #11: 26
Route #12: 19

Cost: 2122.471498085297
